c ====================[ Coprocessor 7.1.0                    v7.1.0-dirty ]================================
c | Norbert Manthey. The use of the tool is limited to research only!                                     |
c | Contributors:                                                                                         |
c |     Kilian Gebhard                                                                                    |
c |     Lucas Kahlert, Franziska Krüger, Aaron Stephan                                                    |
c ============================[ Problem Statistics ]=======================================================
c |                                                                                                       |
c |  Number of variables:           360                                                                  |
c |  Number of clauses:            1980                                                                   |
c |  Parse time:                   0.00 s                                                                 |
c [STAT] CP3 0.012958 s-ppTime, 0 s-ipTime, 0.0147388 s-ppwTime, 0 s-ipwTime, 9 MB, ok 6.3e-05 s-ohTime, 
c [STAT] CP3(2) 2988 cls, 0 learnts, -1008 rem-cls, 0 rem-learnts, 
c [STAT] UP 4e-06 s, 0 units, 0 cls, 0 lits
c [STAT] SuSi(1) 0.000508 s, 0 cls,  with 0 lits, 0 strengthed 
c [STAT] SuSi(2) 50764 subs-steps, 25812 strenght-steps, 0 increases, 0.001234s strengthening 
c [STAT] EE 0.001265 s, 0 steps 0 ee-lits 0 removedCls, 0 removedSubCls,
c [STAT] EE-gate 7.9e-05 s, 0 steps, 0.000997 extractGateTime, 
c [STAT] BVE(1) 0.001444 s, 0.000591 s spent on subsimp, 65 vars tested, 65 anticipations, 599 vars skipped, 3555 checks, 
c [STAT] BVE(2) 488 rem cls, with 1522 lits, 0 learnts rem, with 0 lits, 1496 new cls, with 6212 lits, 0 new learnts, with 0 lits, 
c [STAT] BVE(3) 33 vars eliminated, 0 units enqueued, 0 BC removed, with 0 lits, 0 blocked learnts removed, with 0 lits, 
c [STAT] BVE(4) 0 gateDefs, 0 usedGates, 0 gateSeconds, 
c [STAT] BVE(5) 31 incElims, 0 keepElims, 2 decElims, 1008 totalAdds,
c [STAT] UNHIDE 0.002186 s, 0 cls, 0 totalLits, 0 lits 
c [STAT] UNHIDE(2) 0 prSecs, 0 prSteps, 0 L1units, 0 L2units, 0 L3units, 0 L4units, 0 L5units, 
c [STAT] UNHIDE(3) 0 EE-checks, 0 EE-cands, 0 EEs 
c [STAT] XOR 0.000386s, 0.000372 parse-s, 1.2e-05 reason-s, 
c [STAT] XOR(2) 0 xors, 0 subXors, 0 resXors, 0 clauses, 0 resClauses, 0 resTauts, 0 resStrength, 4963 findChecks, 
c [STAT] XOR(3) 0 steps, 720 empties, 0 listUnits, 0 useLists, 0 xorUnits, 0 eqs, 
c [STAT] XOR(4) 2984 participating, 0.858458 ratio, 0 simDecisions, 0 xorProps, 0 clsProps, 
c [STAT] BCE 0.00131 seconds, 21678 steps, 1308 testLits, 0 remBCE, 0 BCMs, 0 BCMcands, 0 BCMlits, 
c [STAT] CLE 0 remCLE, 0 cleUnits, 
c [STAT] BCE-CLA 0 seconds, 0 steps, 0 testLits, 0 extClss, 0 extLits, 0 possibles, 
c [STAT] FM 0.004747 s, 0.000175 amo-s, 0.008195 fm-s, 0.001021 amt-s, 0 amos, 0 amts, 0 sameUnits, 0 deducedUnits, 0 propUnits, 0 cls, 0 steps, 30402 searchSteps, 0 addDups, 
c [STAT] FM(2) 0 irregulars, 0 pureAmoLits, 0 diff, 0 discards, 0 addedCs, 0 removedCs, 0 newAmos, 0 discardedNewAmos, 
c [STAT] FM(3) 0 newAmoBinCls, 0 newCls, 0 newAlos, 0 newAlks, 0 duplicates, 0 garbageCollecst, 
c [STAT] FM(4) 4e-06 2PrdTime, 0 2PrAmos, 0 2PrLits, 2e-06 dedAloTime, 0 dedAlos, 
c [STAT] FM(5) time: 0.003353 s,steps: 30023 cards: 0 failed: 4968 extLits: 0 redDegree: 0 probes: 5623 conflictProbes: 1 savedPreCls: 0 savedPostCls: 0 units: 13510
c [STAT] DENSE 33 gaps
c |  Simplification time:          0.01 s                                                                 |
c |                                                                                                       |
c ==============================[ Writing DIMACS ]=========================================================
c =============================[ Writing Undo Info ]=======================================================
c write undo for 276 clauses and 0 units
c preprocessed 0 seconds
c starting sparrow solver
c Instance name       :  /home/lorenz/SAT2018/s2r_bin/tmp/cp_tmpCNF_47840
c Number of variables :  327
c Number of literals  :  654
c Number of Clauses   :  2988
c MaxNumOccurences    :  60
c MaxClauseSize       :  6
c MinClauseSize       :  3
c Ratio               :  9.1376
c Parameter setting   :  7 SAT

c Sparrow 2014 Parameteres: 
c c1                  : 6.5000
c c2                  : 4
c c3                  : 100000
c smoothing prob.     : 0.830
c seed                : 0
c XOR implementation  : yes
c using:              : random clause selection
c maxTries            : 9223372036854775807
c maxFlips            : 500000000
c timeout             : 900sec
c luby restarts       : yes
c luby base           : 262144
c keep assignement    : yes
c sp sequence:        : 0.000, 0.100, 0.600, 1.000, 0.900, 0.600, 0.800, 0.600, 0.000, 
c -->Starting solver  : 

c UNKNOWN best(   3) current(   3) (3.95000        sec)
c EndStatistics:
c numFlips                      : 13722880 
c numProbWalks                  : 12762196  (93.00%) 
c gradientWalks                 : 960684    (7.00%) 
c numSmooth                     : 0         (0.00%) 
c numWeight                     : 0         (0.00%) 
c Try CPU Time                  : 3.950   
c totalTries                    : 508      
c totalFlips                    : 500000000
c flips/sec                     : 2534983 
c Total CPU Time                : 197.240 sec
c solved 197 seconds
c parse model from /home/lorenz/SAT2018/s2r_bin/tmp/cp_model_47840
c WARNING: could not find any solution information!
c opened var map /home/lorenz/SAT2018/s2r_bin/tmp/cp_undo_47840.map for reading ... 
c use Riss 7.1
c [STAT] CP3 0.008145 s-ppTime, 0 s-ipTime, 0.0081455 s-ppwTime, 0 s-ipwTime, 9 MB, ok 0.000266 s-ohTime, 
c [STAT] CP3(2) 2899 cls, 0 learnts, -919 rem-cls, 0 rem-learnts, 
c [STAT] UP 4e-06 s, 0 units, 0 cls, 0 lits
c [STAT] SuSi(1) 0.000214 s, 0 cls,  with 0 lits, 0 strengthed 
c [STAT] SuSi(2) 13538 subs-steps, 29634 strenght-steps, 0 increases, 0.000499s strengthening 
c [STAT] EE 0.000485 s, 0 steps 0 ee-lits 0 removedCls, 0 removedSubCls,
c [STAT] EE-gate 4.3e-05 s, 0 steps, 0.000367 extractGateTime, 
c [STAT] BVE(1) 0.001352 s, 0.000771 s spent on subsimp, 52 vars tested, 52 anticipations, 614 vars skipped, 3010 checks, 
c [STAT] BVE(2) 577 rem cls, with 1758 lits, 0 learnts rem, with 0 lits, 1496 new cls, with 6127 lits, 0 new learnts, with 0 lits, 
c [STAT] BVE(3) 52 vars eliminated, 0 units enqueued, 0 BC removed, with 0 lits, 0 blocked learnts removed, with 0 lits, 
c [STAT] BVE(4) 0 gateDefs, 0 usedGates, 3.4e-05 gateSeconds, 
c [STAT] BVE(5) 50 incElims, 0 keepElims, 2 decElims, 919 totalAdds,
c [STAT] UNHIDE 0.000947 s, 0 cls, 0 totalLits, 0 lits 
c [STAT] UNHIDE(2) 0 prSecs, 0 prSteps, 0 L1units, 0 L2units, 0 L3units, 0 L4units, 0 L5units, 
c [STAT] UNHIDE(3) 0 EE-checks, 0 EE-cands, 0 EEs 
c [STAT] XOR 0.000685s, 0.000646 parse-s, 2.8e-05 reason-s, 
c [STAT] XOR(2) 0 xors, 0 subXors, 0 resXors, 0 clauses, 0 resClauses, 0 resTauts, 0 resStrength, 4875 findChecks, 
c [STAT] XOR(3) 0 steps, 720 empties, 0 listUnits, 0 useLists, 0 xorUnits, 0 eqs, 
c [STAT] XOR(4) 2896 participating, 0.833142 ratio, 0 simDecisions, 0 xorProps, 0 clsProps, 
c [STAT] BCE 0.001152 seconds, 21012 steps, 1232 testLits, 0 remBCE, 0 BCMs, 0 BCMcands, 0 BCMlits, 
c [STAT] CLE 0 remCLE, 0 cleUnits, 
c [STAT] BCE-CLA 0 seconds, 0 steps, 0 testLits, 0 extClss, 0 extLits, 0 possibles, 
c [STAT] FM 0.002976 s, 9.4e-05 amo-s, 0.004855 fm-s, 0.000554 amt-s, 0 amos, 0 amts, 0 sameUnits, 0 deducedUnits, 0 propUnits, 0 cls, 0 steps, 30144 searchSteps, 0 addDups, 
c [STAT] FM(2) 0 irregulars, 0 pureAmoLits, 0 diff, 0 discards, 0 addedCs, 0 removedCs, 0 newAmos, 0 discardedNewAmos, 
c [STAT] FM(3) 0 newAmoBinCls, 0 newCls, 0 newAlos, 0 newAlks, 0 duplicates, 0 garbageCollecst, 
c [STAT] FM(4) 2e-06 2PrdTime, 0 2PrAmos, 0 2PrLits, 1e-06 dedAloTime, 0 dedAlos, 
c [STAT] FM(5) time: 0.002209 s,steps: 28824 cards: 0 failed: 4879 extLits: 0 redDegree: 0 probes: 5427 conflictProbes: 0 savedPreCls: 0 savedPostCls: 0 units: 12869
c [STAT] DENSE 52 gaps
c Riss 7.1 used 5 seconds with exit code 10
c pp-time: 0 SLS-time: 197  CDCL-time: 5
c solved with: Riss 7.1
 c
c SparrowToRiss 2018
c Adrian Balint, Norbert Manthey
c
c undo: /home/lorenz/SAT2018/s2r_bin/tmp/cp_undo_47840 tmpCNF: /home/lorenz/SAT2018/s2r_bin/tmp/cp_tmpCNF_47840 model: /home/lorenz/SAT2018/s2r_bin/tmp/cp_model_47840 realModel: /home/lorenz/SAT2018/s2r_bin/tmp/model_47840
c preprocessed 0 seconds with exit code 0
c not solved by preprocessor -- do search
c post-process with coprocessor
c WARNING: for repeatability, setting FPU to use double precision
c =================[ riss (core) 7.1.0                    v7.1.0-dirty ]===================================
c | Norbert Manthey. The use of the tool is limited to research only!                                     |
c | Based on Minisat 2.2 and Glucose 2.1  -- thanks!                                                      |
c | Contributors:                                                                                         |
c |      Kilian Gebhardt                                                                                  |
c |      Lucas Kahlert, Franziska Krüger, Aaron Stephan                                                   |
c ============================[ Problem Statistics ]=======================================================
c |                                                                                                       |
c |  Number of variables:                360                                                              |
c |  Number of clauses:                 1980                                                              |
c |  Number of total literals:          5940                                                              |
c |  Parse time:                        0.00 s                                                            |
c |                                                                                                       |
c ========================================[ MAGIC CONSTANTS ]==============================================
c | Constants are supposed to work well together :-)                                                      |
c | however, if you find better choices, please let us known...                                           |
c |-------------------------------------------------------------------------------------------------------|
c |                                |                                |                                     |
c | - Restarts:                    | - Reduce Clause DB:            | - Minimize Asserting:               |
c |   * LBD Queue    :     50      |   * First     :   4000         |    * size <  30                     |
c |   * Trail  Queue :   5000      |   * Inc       :    300         |    * lbd  <   6                     |
c |   * K            :   0.80      |   * Special   :   1000         |                                     |
c |   * R            :   1.40      |   * Protected :  (lbd)< 30     |                                     |
c |                                |                                |                                     |
c =========================================================================================================
c =========================================================================================================
c | solve clauses:         2899  solve variables:          308                                            |
c =========================================================================================================
c ==================================[ Search Statistics (every  10000 conflicts) ]=========================
c |                                                                                                       |
c |          RESTARTS           |          ORIGINAL         |              LEARNT              | Progress |
c |       NB   Blocked  Avg Cfc |    Vars  Clauses Literals |   Red   Learnts    LBD2  Removed |          |
c =========================================================================================================
c |        3         0     3333 |     360     2899    10309 |     1     8039       32     1960 |  0.001 % | 
c |        8       150     2500 |     360     2899    10309 |     3     7138       48    12861 |  0.001 % | 
c |       19       292     1578 |     360     2899    10309 |     3    17138       71    12861 |  0.001 % | 
c |       23       441     1739 |     360     2899    10309 |     4    17958       79    22041 |  0.001 % | 
c |       27       578     1851 |     360     2899    10309 |     5    16224       91    33775 |  0.001 % | 
c |       31       724     1935 |     360     2899    10309 |     5    26224      114    33775 |  0.001 % | 
c |       36       870     1944 |     360     2899    10309 |     6    21908      127    48091 |  0.001 % | 
c |       38      1018     2105 |     360     2899    10309 |     6    31908      139    48091 |  0.001 % | 
c |       38      1176     2368 |     360     2899    10309 |     7    25001      143    64998 |  0.001 % | 
c |       52      1314     1923 |     360     2899    10309 |     7    35001      150    64998 |  0.001 % | 
c |       53      1465     2075 |     360     2899    10309 |     8    25498      155    84501 |  0.001 % | 
c =========================================================================================================
c Tinimt-Ratios: ratioCpW: 0.94 ,overhead/Total 0.20 0.19 
c Timing(cpu,wall, in s): total: 4.79 5.12 ,prop: 3.38 3.65 ,analysis: 0.46 0.50 ,ext.Res.: 0.00 0.00 ,reduce: 0.03 0.03 ,overhead 0.94 0.96
c PP-Timing(cpu,wall, in s): preprocessing( 1 ): 0.01 0.01 ,inprocessing (0 ): 0.00 0.00
c Trivial Polarity: True: 0  False: 0
c Learnt At Level 1: 0  Multiple: 0 Units: 0
c LAs: 0.000000 laSeconds 0 LA assigned: 0 tabus: 0, failedLas: 0, maxEvery 0, eeV: 0 eeL: 0 
c otfss: 0 (l1: 0 ),cls: 0 ,units: 0 ,binaries: 0, eagerCandidates: 0
c learning: 112527 cls, 13.955611 avg. size, 9.396376 avg. LBD, 40 maxSize
c res.ext.res.: 0 rer, 0 rerSizeCands, 0 sizeReject, 0 patternReject, 0 bloomReject, 0 maxSize, 0.00 avgSize, 0.00 totalLits, 0 gates
c ER rewrite: 0 cls, 0 lits
c i.cls.strengthening: 0.00 seconds, 0 calls, 0 candidates, 0 droppedBefore, 0 shrinked, 0 shrinkedLits
c bi-asserting: 0 pre-Mini, 0 post-Mini, 0.000 rel-pre, 0.000 rel-post
c search-UHLE: 0 attempts, 0 rem-lits
c revMin: 14974 tries 35 succesful 35 dropped 0 cut 35 conflicts
c decisionClauses: 0
c IntervalRestarts: 0
c partial restarts: 1 saved decisions: 1 saved propagations: 1 recursives: 14
c uhd probe: 0.000000 s, 0 L2units, 0 L3units, 0 L4units
c LCM: 0.475915 s, 4 nbLCM, 15562 LCMclsAttempts, 2077 nbLCMclsSuccess, 1395 npConflLCMlits, 3995 nbLCMlits, 0 falsified, 0 positiveDrop, 3783 litsR1, 212 litsR2
c restarts              : 53 (2123 conflicts in avg)
c blocked restarts      : 1496 (multiple: 28) 
c last block at restart : 53
c nb ReduceDB           : 8
c nb removed Clauses    : 84501
c nb learnts DL2        : 159
c nb learnts size 2     : 0
c nb learnts size 1     : 0
c conflicts             : 112527         (23482 /sec)
c decisions             : 132751         (0.00 % random) (27702 /sec)
c propagations          : 5504797        (1148711 /sec)
c conflict literals     : 1570418        (23.84 % deleted)
c nb reduced Clauses    : 0
c Memory used           : 12.00 MB
c CPU time              : 4.79215 s
s SATISFIABLE
v -1 -2 -3 4 -5 -6 -7 8 -9 -10 -11 12 13 14 -15 -16 17 18 19 -20 -21 -22 -23 -24 25 -26 27 28 -29 -30 -31 -32 33 -34 35 36 -37 -38 39 40 -41 -42 -43 44 -45 -46 -47 48 49 -50 -51 52 53 -54 -55 -56 57 -58 59 -60 -61 62 63 64 -65 -66 -67 68 -69 -70 -71 -72 -73 -74 75 76 -77 78 79 -80 -81 -82 -83 -84 -85 86 -87 -88 89 -90 91 -92 93 -94 -95 96 97 -98 -99 100 101 102 -103 -104 105 -106 107 -108 -109 110 -111 112 113 -114 115 116 117 118 119 -120 -121 -122 -123 124 -125 126 -127 128 129 -130 -131 132 -133 -134 -135 136 137 138 139 -140 141 -142 143 144 -145 146 147 148 -149 -150 -151 -152 153 154 -155 -156 -157 158 -159 160 161 162 -163 164 165 166 167 168 169 -170 171 -172 173 -174 175 -176 -177 -178 -179 180 -181 182 -183 -184 -185 -186 187 188 -189 190 -191 192 -193 -194 -195 -196 -197 198 199 200 -201 202 -203 204 205 206 -207 208 -209 210 -211 212 213 -214 -215 -216 -217 218 219 220 221 222 -223 224 225 -226 227 228 229 -230 231 -232 -233 234 -235 236 -237 -238 239 240 -241 242 243 244 -245 -246 247 248 -249 250 251 -252 -253 254 -255 256 257 258 -259 260 -261 262 -263 -264 -265 -266 -267 -268 269 270 -271 272 -273 -274 275 -276 -277 278 279 -280 281 282 283 -284 -285 286 -287 288 -289 -290 -291 292 293 294 295 -296 297 -298 -299 300 -301 302 303 -304 -305 -306 -307 -308 309 -310 -311 312 -313 314 -315 316 -317 318 319 -320 321 -322 -323 324 -325 326 327 -328 -329 330 -331 -332 333 334 -335 336 -337 -338 339 -340 341 -342 -343 344 345 346 -347 348 349 -350 351 352 353 354 -355 -356 -357 358 359 -360 0

